%nprocshared=8
%mem=10GB
%chk=D:\Reaction optimization project\source code\DFT\opti\ligand\input\molecule_9.chk
# opt freq b3lyp/6-31+g(d) geom=connectivity empiricaldispersion=gd3

Title Card Required

0 1
 C                 -4.27655299   -1.38997870    1.56766114
 C                 -2.76715541   -1.42168460    1.44014687
 C                 -2.18365901   -0.02336441    1.44139443
 C                 -2.61528932    0.75057098    2.67072857
 C                 -4.12473084    0.78295516    2.79777980
 C                 -4.70919014   -0.61484399    2.79533017
 H                 -1.06485574   -0.08297251    1.40855748
 H                 -2.33342840   -2.00699628    2.29317383
 H                 -2.48158943   -1.94674397    0.49178150
 H                 -4.71800817   -0.91507376    0.65225889
 H                 -2.17409440    0.27388241    3.58531150
 H                 -2.22071815    1.79814898    2.61297561
 H                 -4.41031599    1.30757717    3.74633595
 H                 -4.55772348    1.36920996    1.94496514
 H                 -4.37575609   -1.16014468    3.71718417
 H                 -2.51963521    0.52187462    0.52052325
 N                 -4.79327897   -2.76397430    1.64531643
 H                 -5.79092258   -2.74174049    1.71022313
 H                 -4.52377089   -3.26831887    0.82494947
 N                 -6.17647896   -0.53517213    2.83552836
 H                 -6.51572404   -1.03484329    3.63254876
 H                 -6.45669057    0.42269555    2.89854383

 1 2 1.0 6 1.0 10 1.0 17 1.0
 2 3 1.0 8 1.0 9 1.0
 3 4 1.0 7 1.0 16 1.0
 4 5 1.0 11 1.0 12 1.0
 5 6 1.0 13 1.0 14 1.0
 6 15 1.0 20 1.0
 7
 8
 9
 10
 11
 12
 13
 14
 15
 16
 17 18 1.0 19 1.0
 18
 19
 20 21 1.0 22 1.0
 21
 22

