%nprocshared=8
%mem=10GB
%chk=D:\Reaction optimization project\source code\DFT\opti\ligand\input\molecule_7.chk
# opt freq b3lyp/6-31+g(d) geom=connectivity empiricaldispersion=gd3

Title Card Required

0 1
 C                  1.45515167   -0.49024150   -1.10083727
 C                  2.40716540   -0.27939216    0.09114108
 C                  1.87416983    0.32050934    1.40553597
 C                  2.13402934    0.27640179    2.92281233
 C                  0.97184847    0.49321339    3.90969042
 O                  3.29603949    0.06319357    3.35622350
 O                  3.62063014   -0.59730334   -0.00889071
 H                  0.46614780   -0.67849295   -0.73843867
 H                  1.78807947   -1.32632545   -1.67964875
 H                  1.44976365    0.38759467   -1.71261716
 H                  1.52710482   -0.67849294    1.56814081
 H                  2.80781381    0.84305360    1.39302919
 H                  0.06032626    0.14729752    3.46881687
 H                  0.88564373    1.53550036    4.13575812
 H                  1.16208611   -0.05251590    4.81018427

 1 2 1.0 8 1.0 9 1.0 10 1.0
 2 3 1.0 7 2.0
 3 4 1.0 11 1.0 12 1.0
 4 5 1.0 6 2.0
 5 13 1.0 14 1.0 15 1.0
 6
 7
 8
 9
 10
 11
 12
 13
 14
 15

