%nprocshared=8
%mem=10GB
%chk=D:\Reaction optimization project\source code\DFT\opti\ligand\input\molecule_17.chk
# opt freq b3lyp/gen empiricaldispersion=gd3 scf=maxcycle=1000

Title Card Required

0 1
 C                  3.74483000   -1.98281000   -1.23886400
 C                  4.02489100   -1.12406500   -0.19614200
 C                  3.02537700   -0.25733300    0.32741400
 C                  1.70528000   -0.27632700   -0.23827300
 C                  1.45110500   -1.17743900   -1.31301500
 C                  2.44264400   -2.00565700   -1.79995800
 H                  4.29644200    0.65344300    1.83247300
 H                  4.51605500   -2.64024000   -1.63120500
 H                  5.01966200   -1.09657200    0.24343100
 C                  3.29887400    0.63398700    1.40039700
 C                  0.69180000    0.59248600    0.28398700
 H                  0.45837400   -1.20572500   -1.75204200
 H                  2.22348700   -2.68286400   -2.62168000
 C                  1.01663500    1.44254000    1.33158300
 C                  2.32009000    1.46462100    1.89360700
 H                  2.53616500    2.14426900    2.71510900
 C                 -0.69180000    0.59248600   -0.28398700
 C                 -1.70528000   -0.27632700    0.23827300
 C                 -1.01663500    1.44254000   -1.33158300
 C                 -1.45110500   -1.17743900    1.31301500
 C                 -3.02537700   -0.25733300   -0.32741400
 C                 -2.32009100    1.46462100   -1.89360600
 C                 -2.44264400   -2.00565800    1.79995700
 H                 -0.45837400   -1.20572600    1.75204100
 C                 -4.02489100   -1.12406600    0.19614100
 C                 -3.29887400    0.63398700   -1.40039700
 H                 -2.53616600    2.14427100   -2.71510700
 C                 -3.74482900   -1.98281000    1.23886400
 H                 -2.22348600   -2.68286500    2.62167900
 H                 -5.01966200   -1.09657300   -0.24343100
 H                 -4.29644200    0.65344400   -1.83247200
 H                 -4.51605400   -2.64024100    1.63120400
 O                  0.03619200    2.26954800    1.82039800
 H                  0.38920700    2.81129100    2.54482700
 O                 -0.03619200    2.26954800   -1.82039800
 H                 -0.38921100    2.81130200   -2.54481700

C H O 0
6-31+G*
****


