%nprocshared=8
%mem=10GB
%chk=D:\Reaction optimization project\source code\DFT\opti\ligand\input\molecule_6.chk
# opt freq b3lyp/6-31+g(d) geom=connectivity empiricaldispersion=gd3

Title Card Required

0 1
 C                 -0.10578769    1.58979897    0.04115610
 C                  1.41831054    1.79586050   -0.03798441
 C                  2.07812195    1.24240305    1.23870418
 N                  3.53294299    1.43909815    1.16316097
 C                  1.52266804    1.98623652    2.46743635
 O                  1.09193960    3.34446250    2.34662585
 O                  1.44782389    1.39881586    3.57779930
 C                  1.97376445    1.05202703   -1.26671657
 H                 -0.49171995    2.10661832    0.89488559
 H                 -0.32036641    0.54526187    0.12946371
 H                 -0.56422809    1.97434408   -0.84589377
 H                  1.63288926    2.84039759   -0.12629201
 H                  1.86354323    0.19786596    1.32701179
 H                  3.73348385    2.41530104    1.08063050
 H                  3.89362734    0.95608941    0.36528294
 H                  0.76836141    3.49955741    1.45620868
 H                  1.75918573    0.00748994   -1.17840896
 H                  3.03271581    1.19519966   -1.32170380
 H                  1.51532405    1.43657214   -2.15376643

 1 2 1.0 9 1.0 10 1.0 11 1.0
 2 3 1.0 8 1.0 12 1.0
 3 4 1.0 5 1.0 13 1.0
 4 14 1.0 15 1.0
 5 6 1.0 7 2.0
 6 16 1.0
 7
 8 17 1.0 18 1.0 19 1.0
 9
 10
 11
 12
 13
 14
 15
 16
 17
 18
 19

